objective value:                                   -4
t_n_9                                               1 	(obj:-1)
t_n_273                                             1 	(obj:-1)
t_n_639                                             1 	(obj:-1)
t_n_807                                             1 	(obj:-1)
